results/res_prop_muc/res_Cimatti_mathsat_cores/QF_UF/PEQ016_size5.smt.smt2.out

real	0m44.992s
user	0m43.228s
sys	0m1.631s
