results/res_prop_muc/res_Cimatti_mathsat_cores/QF_UF/PEQ016_size5.smt.smt2.res
unsat
( _c0
  _c10
  _c100
  _c1000
  _c1001
  _c1002
  _c1004
  _c1005
  _c1006
  _c1007
  _c1008
  _c1009
  _c101
  _c1010
  _c1011
  _c1012
  _c1013
  _c1014
  _c1015
  _c1016
  _c1018
  _c1019
  _c102
  _c1020
  _c1021
  _c1024
  _c1025
  _c1026
  _c1027
  _c1028
  _c1029
  _c103
  _c1031
  _c1032
  _c1033
  _c1034
  _c1035
  _c1036
  _c1037
  _c1038
  _c1039
  _c104
  _c1040
  _c1041
  _c1043
  _c1044
  _c1045
  _c1046
  _c1049
  _c105
  _c1050
  _c1051
  _c1055
  _c1056
  _c1058
  _c106
  _c1060
  _c1062
  _c1063
  _c1064
  _c1065
  _c1066
  _c1067
  _c1068
  _c1069
  _c107
  _c1070
  _c1071
  _c1072
  _c1073
  _c1074
  _c1075
  _c1076
  _c1077
  _c1078
  _c1079
  _c108
  _c1080
  _c1081
  _c1082
  _c1083
  _c1084
  _c1085
  _c1086
  _c1087
  _c1088
  _c1089
  _c109
  _c1090
  _c1091
  _c1092
  _c1093
  _c1094
  _c1095
  _c1096
  _c1097
  _c1098
  _c1099
  _c11
  _c110
  _c1100
  _c1101
  _c1102
  _c1103
  _c1104
  _c1105
  _c1106
  _c1107
  _c1108
  _c1109
  _c111
  _c1110
  _c1111
  _c1112
  _c1113
  _c1114
  _c1115
  _c1116
  _c1117
  _c1118
  _c1119
  _c112
  _c1120
  _c1121
  _c1122
  _c1123
  _c1124
  _c1125
  _c1126
  _c1127
  _c1128
  _c1129
  _c113
  _c1130
  _c1131
  _c1132
  _c1133
  _c1134
  _c1135
  _c1136
  _c1137
  _c1138
  _c1139
  _c114
  _c1140
  _c1141
  _c1142
  _c1143
  _c1144
  _c1145
  _c1146
  _c1147
  _c1148
  _c1149
  _c115
  _c1150
  _c1151
  _c1152
  _c1153
  _c1154
  _c1155
  _c1156
  _c1157
  _c1158
  _c1159
  _c116
  _c1160
  _c1161
  _c1162
  _c1163
  _c1164
  _c1165
  _c1166
  _c1167
  _c1168
  _c1169
  _c117
  _c1170
  _c1171
  _c1172
  _c1173
  _c1174
  _c1175
  _c1176
  _c1177
  _c1178
  _c1179
  _c118
  _c1180
  _c1181
  _c1182
  _c1183
  _c1184
  _c1185
  _c1186
  _c119
  _c12
  _c120
  _c121
  _c122
  _c123
  _c124
  _c125
  _c126
  _c127
  _c128
  _c129
  _c13
  _c130
  _c131
  _c132
  _c133
  _c134
  _c1362
  _c1363
  _c1364
  _c1365
  _c1366
  _c1367
  _c1368
  _c1369
  _c137
  _c1370
  _c1371
  _c1372
  _c1373
  _c1374
  _c1375
  _c1376
  _c1377
  _c1378
  _c1379
  _c138
  _c1380
  _c1381
  _c1382
  _c14
  _c140
  _c141
  _c142
  _c15
  _c150
  _c1508
  _c1509
  _c151
  _c1511
  _c1517
  _c1523
  _c1533
  _c1534
  _c1536
  _c1537
  _c1538
  _c1539
  _c1542
  _c1543
  _c1544
  _c1545
  _c1547
  _c1550
  _c1551
  _c1552
  _c1553
  _c1554
  _c1555
  _c1556
  _c1557
  _c1564
  _c1565
  _c1566
  _c1567
  _c1568
  _c1569
  _c1570
  _c1571
  _c1572
  _c1573
  _c1574
  _c1575
  _c16
  _c17
  _c18
  _c19
  _c191
  _c20
  _c21
  _c211
  _c212
  _c213
  _c22
  _c23
  _c231
  _c232
  _c233
  _c234
  _c24
  _c25
  _c251
  _c252
  _c253
  _c254
  _c255
  _c256
  _c257
  _c258
  _c259
  _c26
  _c260
  _c261
  _c262
  _c263
  _c264
  _c265
  _c266
  _c267
  _c268
  _c269
  _c27
  _c270
  _c271
  _c272
  _c273
  _c274
  _c275
  _c276
  _c277
  _c278
  _c279
  _c28
  _c280
  _c281
  _c282
  _c283
  _c284
  _c285
  _c286
  _c287
  _c288
  _c289
  _c29
  _c290
  _c291
  _c292
  _c293
  _c294
  _c295
  _c296
  _c297
  _c298
  _c299
  _c30
  _c300
  _c301
  _c302
  _c303
  _c304
  _c305
  _c306
  _c307
  _c308
  _c309
  _c31
  _c310
  _c311
  _c312
  _c313
  _c314
  _c315
  _c316
  _c317
  _c318
  _c319
  _c32
  _c320
  _c321
  _c322
  _c323
  _c324
  _c325
  _c326
  _c327
  _c328
  _c329
  _c33
  _c330
  _c331
  _c332
  _c333
  _c334
  _c335
  _c336
  _c337
  _c338
  _c339
  _c34
  _c340
  _c341
  _c342
  _c343
  _c344
  _c345
  _c346
  _c347
  _c348
  _c349
  _c35
  _c350
  _c351
  _c352
  _c353
  _c354
  _c355
  _c356
  _c357
  _c358
  _c359
  _c36
  _c360
  _c361
  _c362
  _c363
  _c364
  _c365
  _c366
  _c367
  _c368
  _c369
  _c37
  _c370
  _c371
  _c372
  _c373
  _c374
  _c375
  _c376
  _c377
  _c378
  _c379
  _c38
  _c380
  _c381
  _c382
  _c383
  _c384
  _c385
  _c386
  _c387
  _c388
  _c389
  _c39
  _c390
  _c391
  _c392
  _c393
  _c394
  _c395
  _c396
  _c397
  _c398
  _c399
  _c40
  _c400
  _c41
  _c42
  _c43
  _c44
  _c45
  _c46
  _c47
  _c48
  _c49
  _c50
  _c51
  _c52
  _c53
  _c536
  _c537
  _c538
  _c539
  _c54
  _c540
  _c541
  _c542
  _c543
  _c544
  _c545
  _c546
  _c547
  _c548
  _c549
  _c55
  _c550
  _c551
  _c552
  _c553
  _c554
  _c555
  _c56
  _c57
  _c58
  _c59
  _c6
  _c60
  _c61
  _c62
  _c63
  _c64
  _c65
  _c66
  _c67
  _c68
  _c69
  _c7
  _c70
  _c71
  _c713
  _c714
  _c715
  _c716
  _c717
  _c719
  _c72
  _c720
  _c721
  _c722
  _c723
  _c725
  _c726
  _c727
  _c728
  _c729
  _c73
  _c731
  _c732
  _c733
  _c734
  _c735
  _c738
  _c739
  _c74
  _c740
  _c741
  _c742
  _c744
  _c745
  _c746
  _c747
  _c748
  _c75
  _c750
  _c751
  _c752
  _c753
  _c754
  _c756
  _c757
  _c758
  _c759
  _c76
  _c760
  _c763
  _c764
  _c765
  _c766
  _c767
  _c769
  _c77
  _c770
  _c771
  _c772
  _c773
  _c775
  _c776
  _c777
  _c778
  _c779
  _c78
  _c781
  _c782
  _c783
  _c784
  _c785
  _c788
  _c789
  _c79
  _c790
  _c791
  _c792
  _c794
  _c795
  _c796
  _c797
  _c798
  _c8
  _c80
  _c800
  _c801
  _c802
  _c803
  _c804
  _c806
  _c807
  _c808
  _c809
  _c81
  _c810
  _c813
  _c814
  _c815
  _c816
  _c817
  _c819
  _c82
  _c820
  _c821
  _c822
  _c823
  _c825
  _c826
  _c827
  _c828
  _c829
  _c83
  _c831
  _c832
  _c833
  _c834
  _c835
  _c837
  _c838
  _c84
  _c842
  _c843
  _c844
  _c845
  _c846
  _c847
  _c848
  _c849
  _c85
  _c850
  _c851
  _c852
  _c853
  _c854
  _c855
  _c856
  _c86
  _c862
  _c863
  _c864
  _c865
  _c866
  _c87
  _c88
  _c89
  _c9
  _c90
  _c902
  _c904
  _c905
  _c906
  _c907
  _c908
  _c909
  _c91
  _c910
  _c911
  _c912
  _c913
  _c914
  _c915
  _c916
  _c92
  _c922
  _c924
  _c925
  _c926
  _c927
  _c928
  _c929
  _c93
  _c930
  _c931
  _c938
  _c939
  _c94
  _c940
  _c941
  _c942
  _c943
  _c944
  _c945
  _c946
  _c947
  _c948
  _c949
  _c95
  _c950
  _c951
  _c952
  _c953
  _c954
  _c955
  _c956
  _c957
  _c958
  _c959
  _c96
  _c960
  _c961
  _c962
  _c963
  _c964
  _c965
  _c966
  _c967
  _c968
  _c969
  _c97
  _c970
  _c971
  _c972
  _c973
  _c974
  _c975
  _c976
  _c977
  _c978
  _c979
  _c98
  _c980
  _c981
  _c982
  _c983
  _c984
  _c985
  _c986
  _c987
  _c988
  _c989
  _c99
  _c990
  _c991
  _c993
  _c994
  _c995
  _c996
  _c997
  _c998 )
